#initial setup
units 			metal
boundary 		p p p 
atom_style		atomic
timestep		0.001
neighbor		2.0 bin
neigh_modify	delay 0 every 5 check yes
#modeling box
region 			box block 0 20 0 20 0 20 units box
create_box		2 box
#Cu
lattice 		fcc 3.61 
region 			Cu block 0 20 0 20 0 16 units box
create_atoms 	1 region Cu
mass			1 63.54
#Ni
lattice 		fcc 3.53 
region 			Ni block 0 20 0 20 16 20 units box
create_atoms 	2 region Ni
mass			1 58.69
#eam potential coefficent
pair_style 		eam/alloy
pair_coeff * * CuNi.eam.alloy Cu Ni
#minimize energy
thermo 3000
dump 1 all atom 5 1mini.xyz
min_style cg
minimize 1e-15 1e-15 10000 10000
undump 1
reset_timestep 0
#initial velocity all create 298 87955 rot yes dist gaussian
#npt temp up
reset_timestep	0
fix				1 all npt temp 298 3000 0.1 iso 0.0 0.0 1
dump 			1 all atom 5000 2npt_hot.xyz
run				100000
unfix			1
undump			1
reset_timestep  0
#nvt mix up
dump			1 all atom 5000 3nvt_equ.xyz
run				1
fix 			1 all nvt temp	3000 3000 0.1
unfix			1
undump			1
reset_timestep	0
#nvt 
fix 			1 all nvt temp 3000 3000 0.1
thermo 1000
thermo_style custom step temp press vol pe ke etotal enthalpy
thermo_modify flush yes
compute 1 all orientorder/atom degrees 3 4 6 8
dump 1 all custom 10000 dump.traj id type x y z c_1[1] c_1[2] c_1[3]
run 5000000