#initial setup
units 			metal
boundary 		p p p 
atom_style		atomic
timestep		0.001
neighbor		2.0 bin
neigh_modify	delay 0 every 5 check yes
#modeling box
region 			box block 0 20 0 20 0 20 units box
create_box		2 box
#Cu
lattice 		fcc 3.61 
region 			Cu block 0 20 0 20 0 10 units box
create_atoms 	1 region Cu
mass			1 63.54
#Ni
lattice 		fcc 3.53 
region 			Ni block 0 20 0 20 10 20 units box
create_atoms 	2 region Ni
mass			1 58.69
#eam potential coefficent
pair_style 		eam/alloy
pair_coeff * * CuNi.eam.alloy Cu Ni

fix 1 all nvt temp 3000 3000 100
thermo 1000
thermo_style custom step temp press vol pe ke etotal enthalpy
thermo_modify flush yes
dump 1 all custom 1000 dump.traj id type x y z 
run 1000000